\ENCODING=ISO-8859-1
\Problem name: 

Minimize
 obj1: y0
Subject To
 c_2: y0 + 16 y_1 + 19 y_2 + 23 y_3 + 28 y_4 - 100 R  = 0
 c_3: 2 y_1 + 3 y_2 + 4 y_3 + 5 y_4 - R <= 13
 c_4: 6 y_1 + y_2 + 3 y_3 + 2 y_4 - R <= 7
 c_5: y_1 <= 5
 c_6: y_2 <= 5
 c_7: y_3 <= 5
 c_8: y_4 <= 5
 s7:  4 y_1 + 3 y_2 + 4 y_3 + 5 y_4 - 2 R <= 14
 s8:  3 y_1 + 3 y_2 + 4 y_3 + 5 y_4 - 2 R <= 13
 s9:  4 y_1 + 3 y_2 + 4 y_3 + 5 y_4 - 2 R <= 14
 s10: 3 y_1 + 3 y_2 + 4 y_3 + 5 y_4 - 2 R <= 13
 s11: 2 y_1 + 2 y_2 + 2 y_3 + 3 y_4 - 2 R <= 8
Bounds
      y0 Free
 0 <= y_1 <= 5
 0 <= y_2 <= 5
 0 <= y_3 <= 5
 0 <= y_4 <= 5
End
